output ["x = ",show(x),";\n","objective = ",show(objective),";\n"];
set of int: VRange = 1..50;
array [VRange] of int: c = [560,1125,300,620,2100,431,68,328,47,122,322,196,41,25,425,4260,416,115,82,22,631,132,420,86,42,103,215,81,91,26,49,420,316,72,71,49,108,116,90,738,1811,430,3060,215,58,296,620,418,47,81];
array [VRange] of int: x;
int: objective = sum([c[i]*x[i] | i in VRange, ]);
